c generated by sgen3tocnf
c nLits = 639
c actual nVars = 213
c Command: sgen3tocnf 72 19 0 0 216 3 1 0 /dev/null
p cnf 216 285
-106 -94 0
-106 -97 0
-94 -97 0
-184 -175 0
-184 -202 0
-175 -202 0
-88 -181 0
-88 -127 0
-181 -127 0
-49 -109 0
-49 -34 0
-109 -34 0
-13 -208 0
-13 -43 0
-208 -43 0
-214 -205 0
-214 -157 0
-205 -157 0
-154 -211 0
-154 -145 0
-211 -145 0
-160 -70 0
-160 -215 0
-70 -215 0
-85 -185 0
-85 -82 0
-185 -82 0
-136 -139 0
-136 -155 0
-139 -155 0
-73 -166 0
-73 -118 0
-166 -118 0
-79 -44 0
-79 -206 0
-44 -206 0
-7 -52 0
-7 -91 0
-52 -91 0
-19 -16 0
-19 -103 0
-16 -103 0
-35 -10 0
-35 -64 0
-10 -64 0
-151 -58 0
-151 -124 0
-58 -124 0
-199 -161 0
-199 -152 0
-161 -152 0
-140 -133 0
-140 -22 0
-133 -22 0
-31 -65 0
-31 -61 0
-65 -61 0
-187 -153 0
-187 -148 0
-153 -148 0
-112 -203 0
-112 -167 0
-203 -167 0
-158 -104 0
-158 -200 0
-104 -200 0
-45 -74 0
-45 -162 0
-74 -162 0
-37 -8 0
-37 -40 0
-8 -40 0
-105 -41 0
-105 -110 0
-41 -110 0
-95 -67 0
-95 -113 0
-67 -113 0
-111 -14 0
-111 -75 0
-14 -75 0
-146 -193 0
-146 -186 0
-193 -186 0
-172 -89 0
-172 -2 0
-89 -2 0
-125 -147 0
-125 -163 0
-147 -163 0
-17 -4 0
-17 -80 0
-4 -80 0
-130 -149 0
-130 -53 0
-149 -53 0
-150 -126 0
-150 -100 0
-126 -100 0
-5 -170 0
-5 -178 0
-170 -178 0
-92 -62 0
-92 -6 0
-62 -6 0
-28 -164 0
-28 -90 0
-164 -90 0
-142 -32 0
-142 -121 0
-32 -121 0
-101 -137 0
-101 -196 0
-137 -196 0
-55 -36 0
-55 -68 0
-36 -68 0
-128 -83 0
-128 -20 0
-83 -20 0
-134 -156 0
-134 -33 0
-156 -33 0
-204 -23 0
-204 -209 0
-23 -209 0
-122 -50 0
-122 -72 0
-50 -72 0
-98 -188 0
-98 -15 0
-188 -15 0
-212 -115 0
-212 -141 0
-115 -141 0
-165 -159 0
-165 -135 0
-159 -135 0
-46 -143 0
-46 -86 0
-143 -86 0
-84 -216 0
-84 -38 0
-216 -38 0
-25 -119 0
-25 -182 0
-119 -182 0
-24 -56 0
-24 -47 0
-56 -47 0
-194 -21 0
-194 -176 0
-21 -176 0
-177 -81 0
-177 -138 0
-81 -138 0
-120 -197 0
-120 -18 0
-197 -18 0
-69 -173 0
-69 -59 0
-173 -59 0
-11 -48 0
-11 -190 0
-48 -190 0
-171 -123 0
-171 -131 0
-123 -131 0
-198 -107 0
-198 -26 0
-107 -26 0
-66 -132 0
-66 -174 0
-132 -174 0
-42 -93 0
-42 -116 0
-93 -116 0
-54 -179 0
-54 -96 0
-179 -96 0
-191 -87 0
-191 -57 0
-87 -57 0
-76 -27 0
-76 -213 0
-27 -213 0
-63 -201 0
-63 -195 0
-201 -195 0
-60 -102 0
-60 -51 0
-102 -51 0
-207 -129 0
-207 -144 0
-129 -144 0
-210 -114 0
-210 -12 0
-114 -12 0
-117 -99 0
-117 -29 0
-99 -29 0
-183 -77 0
-183 -189 0
-77 -189 0
-168 -30 0
-168 -9 0
-30 -9 0
-180 -39 0
-180 -78 0
-39 -78 0
-3 -192 0
-3 -108 0
-192 -108 0
3 2 0
5 4 6 0
7 8 9 0
11 10 12 0
13 14 15 0
17 16 18 0
19 21 20 0
24 23 22 0
25 27 26 0
28 30 29 0
31 32 33 0
35 36 34 0
37 39 38 0
42 41 40 0
45 44 43 0
46 48 47 0
49 50 51 0
54 52 53 0
55 56 57 0
60 58 59 0
63 62 61 0
66 65 64 0
69 67 68 0
70 72 0
73 74 75 0
76 77 78 0
79 81 80 0
84 83 82 0
85 87 86 0
88 89 90 0
92 93 91 0
95 94 96 0
98 99 97 0
101 102 100 0
105 104 103 0
106 107 108 0
111 109 110 0
112 114 113 0
117 115 116 0
120 119 118 0
122 123 121 0
125 126 124 0
128 129 127 0
130 132 131 0
134 133 135 0
136 137 138 0
140 139 141 0
142 143 144 0
146 147 145 0
150 149 148 0
151 153 152 0
154 156 155 0
158 159 157 0
160 161 162 0
165 164 163 0
168 166 167 0
171 170 0
172 173 174 0
177 175 176 0
180 179 178 0
183 181 182 0
184 185 186 0
187 188 189 0
191 192 190 0
194 193 195 0
198 197 196 0
199 201 200 0
204 203 202 0
207 205 206 0
210 208 209 0
212 211 213 0
214 216 215 0
